\* Maximise points kept *\
Maximize
OBJ: 117_REDWOOD_REGIONAL_PARK + 127_STABLE_CAFE + 25_BLUE_BOTTLE_COFFEE
Subject To
_C1: 117_REDWOOD_REGIONAL_PARK + 127_STABLE_CAFE + 25_BLUE_BOTTLE_COFFEE <= 2
Binaries
117_REDWOOD_REGIONAL_PARK
127_STABLE_CAFE
25_BLUE_BOTTLE_COFFEE
End
